benchmarks_vrp/CMT2/tsp_classic/CMT2_7.vrp
NAME: CMT2_7
TYPE: CVRP
COMMENT: 835.26 - Cluster Nr.7
DIMENSION: 8
CAPACITY: 140
EDGE_WEIGHT_TYPE: EUC_2D
NODE_COORD_TYPE: TWOD_COORDS
NODE_COORD_SECTION: 
3 54 38
2 62 35
6 40 40
4 50 30
8 51 42
7 55 45
1 50 40
5 55 34
DEPOT_SECTION: 
6
-1
DEMAND_SECTION: 
1 19
6 0
8 27
4 21
7 16
3 19
2 12
5 17
EOF
