benchmarks_vrp/CMT2/tsp_classic/CMT2_7.tour
NAME: CMT2_7 solution
TYPE: TOUR
TOUR_SECTION:
6 1 8 7 3 2 5 4 -1
-1
EOF